4 
5  10 26 41 56 
6  11 21 29 37 44 52 59 
7  07 14 22 29 37 44 52 59 
8  07 14 22 29 37 44 52 
9  00 10 18 25 33 40 48 55 
10  03 10 18 25 33 40 48 55 
11  03 10 18 25 33 40 48 55 
12  03 10 18 25 33 40 48 55 
13  03 11 18 25 33 40 48 55 
14  03 10 18 25 33 40 48 55 
15  03 10 18 25 33 40 48 55 
16  03 10 18 25 33 40 48 55 
17  03 10 18 25 33 40 48 55 
18  03 10 18 25 33 42 50 57 
19  05 11 19 26 34 41 49 56 
20  04 11 19 26 34 41 49 56 
21  04 19 30 46 
22  01 17 31 47 
23  01 15 32 
0 
